0 95 176 231 271 477 514 636 856 937 
0 93 163 319 383 490 646 691 768 823 
0 85 122 453 477 726 809 898 977 1133 
0 80 187 250 283 555 614 652 1092 1133 
0 157 231 340 357 514 797 929 1009 1194 
85 197 242 300 521 550 646 937 1090 1201 
80 150 242 377 464 563 671 947 1043 1071 
0 95 300 385 563 644 757 796 855 1065 
0 60 162 271 550 614 898 1043 1092 1161 
91 163 385 464 644 726 797 991 1161 1194 
